1659.0 22011.0 
1645.0 22013.0 
1702.0 21819.0 
1714.0 21693.0 
1645.0 22013.0 
1714.0 21693.0 
1642.0 22101.0 
1781.0 21619.0 
1665.0 21912.0 
1645.0 22013.0 
1775.0 21687.0 
1659.0 22011.0 
1798.0 21614.0 
1775.0 21687.0 
1675.0 21851.0 
1714.0 21693.0 
